c
c start with comments
c
p cnf 14 36
2 -10 -6 0
1 6 12 0
-1 -2 -11 0
-9 5 8 0
-12 -3 0
-2 6 -6 10 0
-4 4 10 0
-9 10 9 5 -2 0
3 3 0
2 2 -6 -13 7 0
-6 -4 12 -7 0
-5 -1 -3 3 -10 7 0
-2 7 -2 11 -5 4 0
-6 7 10 0
-10 5 0
-12 2 -12 -1 -3 9 0
3 13 12 0
8 10 0
-14 -6 -8 0
5 6 -6 9 0
1 -4 4 -8 -13 7 0
13 5 12 0
3 12 0
-7 13 12 0
1 11 -7 -8 -5 0
-6 7 4 8 -14 0
-2 10 7 0
-4 -7 -2 14 0
-2 -10 9 0
-8 3 6 0
4 -12 -14 -13 8 0
8 -14 -10 -11 0
7 -11 9 -10 0
6 -6 14 -5 13 0
7 9 1 0
12 3 2 0